79 80
25 14 1
8 2 1
22 19 1
5 26 1
12 32 1
4 20 1
23 22 1
19 11 1
23 6 1
8 3 1
28 10 1
9 11 1
30 3 1
4 28 1
33 1 1
19 23 1
17 31 1
23 11 1
10 27 1
32 19 1
15 5 1
3 16 1
14 26 1
9 19 1
33 25 1
33 18 1
6 17 1
30 18 1
19 29 1
4 34 1
29 30 1
7 25 1
5 2 1
30 28 1
32 5 1
7 24 1
33 9 1
24 5 1
12 30 1
3 10 1
18 24 1
18 21 1
11 31 1
15 28 1
27 31 1
20 1 1
13 17 1
3 26 1
31 26 2
13 25 1
15 6 1
10 1 1
16 17 1
30 5 1
25 29 1
20 29 1
12 23 1
8 8 1
27 26 1
27 6 1
35 7 1
17 14 1
14 23 1
11 8 1
4 21 1
2 25 1
23 28 1
29 13 1
28 12 1
3 33 1
21 24 1
20 18 1
20 22 1
15 20 1
15 9 1
4 31 1
12 1 1
12 19 1
24 24 1
40 40 
40 40 
40 40 
40 40 
40 40 
40 40 
40 40 
40 40 
40 40 
40 40 
40 40 
40 40 
40 40 
40 40 
40 40 
40 40 
40 40 
40 40 
40 40 
40 40 
40 40 
40 40 
40 40 
40 40 
40 40 
40 40 
40 40 
40 40 
40 40 
40 40 
40 40 
40 40 
40 40 
40 40 
40 40 
40 40 
40 40 
40 40 
40 40 
40 40 
40 40 
40 40 
40 40 
40 40 
40 40 
40 40 
40 40 
40 40 
40 40 
40 40 
40 40 
40 40 
40 40 
40 40 
40 40 
40 40 
40 40 
40 40 
40 40 
40 40 
40 40 
40 40 
40 40 
40 40 
40 40 
40 40 
40 40 
40 40 
40 40 
40 40 
40 40 
40 40 
40 40 
40 40 
40 40 
40 40 
40 40 
40 40 
40 40 
40 40 
